Version identifier: 22.1.0.0 | 2022-03-09 | 1a383f8ce
CPXPARAM_Read_DataCheck                          1
CPXPARAM_TimeLimit                               600
1 of 1 MIP starts provided solutions.
MIP start 'm1' defined initial solution with objective 73.0000.
Tried aggregator 4 times.
MIP Presolve eliminated 164910 rows and 13272 columns.
MIP Presolve modified 1610 coefficients.
Aggregator did 155209 substitutions.
Reduced MIP has 13542 rows, 157245 columns, and 328359 nonzeros.
Reduced MIP has 157199 binaries, 46 generals, 0 SOSs, and 0 indicators.
Presolve time = 2.27 sec. (2460.55 ticks)
Tried aggregator 1 time.
Detecting symmetries...
Reduced MIP has 13542 rows, 157245 columns, and 328359 nonzeros.
Reduced MIP has 157199 binaries, 46 generals, 0 SOSs, and 0 indicators.
Presolve time = 0.46 sec. (280.50 ticks)
Probing fixed 69 vars, tightened 0 bounds.
Probing time = 0.66 sec. (66.18 ticks)
Clique table members: 317548.
MIP emphasis: balance optimality and feasibility.
MIP search method: dynamic search.
Parallel mode: deterministic, using up to 8 threads.
Root relaxation solution time = 1.45 sec. (961.60 ticks)

        Nodes                                         Cuts/
   Node  Left     Objective  IInf  Best Integer    Best Bound    ItCnt     Gap

*     0+    0                           73.0000        0.0000           100.00%
      0     0       46.3841  9716       73.0000       46.3841       26   36.46%
      0     0        cutoff             73.0000                    305    0.00%
Elapsed time = 12.38 sec. (7686.52 ticks, tree = 0.01 MB, solutions = 1)

Zero-half cuts applied:  9
Gomory fractional cuts applied:  27

Root node processing (before b&c):
  Real time             =   12.39 sec. (7697.42 ticks)
Parallel b&c, 8 threads:
  Real time             =    0.00 sec. (0.00 ticks)
  Sync time (average)   =    0.00 sec.
  Wait time (average)   =    0.00 sec.
                          ------------
Total (root+branch&cut) =   12.39 sec. (7697.42 ticks)
